%%MatrixMarket matrix coordinate integer general
% HX=d1 for W(3,3); entries are representatives in {0,1,2} of GF(3)
40 240 480
1 1 2
1 2 2
1 3 2
1 4 2
1 5 2
1 6 2
1 7 2
1 8 2
1 9 2
1 10 2
1 11 2
1 12 2
2 1 1
2 13 2
2 14 2
2 15 2
2 16 2
2 17 2
2 18 2
2 19 2
2 20 2
2 21 2
2 22 2
2 23 2
3 2 1
3 13 1
3 24 2
3 25 2
3 26 2
3 27 2
3 28 2
3 29 2
3 30 2
3 31 2
3 32 2
3 33 2
4 3 1
4 14 1
4 24 1
4 34 2
4 35 2
4 36 2
4 37 2
4 38 2
4 39 2
4 40 2
4 41 2
4 42 2
5 15 1
5 43 2
5 44 2
5 45 2
5 46 2
5 47 2
5 48 2
5 49 2
5 50 2
5 51 2
5 52 2
5 53 2
6 16 1
6 54 2
6 55 2
6 56 2
6 57 2
6 58 2
6 59 2
6 60 2
6 61 2
6 62 2
6 63 2
6 64 2
7 17 1
7 65 2
7 66 2
7 67 2
7 68 2
7 69 2
7 70 2
7 71 2
7 72 2
7 73 2
7 74 2
7 75 2
8 18 1
8 43 1
8 76 2
8 77 2
8 78 2
8 79 2
8 80 2
8 81 2
8 82 2
8 83 2
8 84 2
8 85 2
9 19 1
9 54 1
9 86 2
9 87 2
9 88 2
9 89 2
9 90 2
9 91 2
9 92 2
9 93 2
9 94 2
9 95 2
10 20 1
10 65 1
10 96 2
10 97 2
10 98 2
10 99 2
10 100 2
10 101 2
10 102 2
10 103 2
10 104 2
10 105 2
11 21 1
11 44 1
11 76 1
11 106 2
11 107 2
11 108 2
11 109 2
11 110 2
11 111 2
11 112 2
11 113 2
11 114 2
12 22 1
12 55 1
12 86 1
12 115 2
12 116 2
12 117 2
12 118 2
12 119 2
12 120 2
12 121 2
12 122 2
12 123 2
13 23 1
13 66 1
13 96 1
13 124 2
13 125 2
13 126 2
13 127 2
13 128 2
13 129 2
13 130 2
13 131 2
13 132 2
14 4 1
14 45 1
14 56 1
14 67 1
14 133 2
14 134 2
14 135 2
14 136 2
14 137 2
14 138 2
14 139 2
14 140 2
15 5 1
15 77 1
15 87 1
15 97 1
15 133 1
15 141 2
15 142 2
15 143 2
15 144 2
15 145 2
15 146 2
15 147 2
16 6 1
16 106 1
16 115 1
16 124 1
16 134 1
16 141 1
16 148 2
16 149 2
16 150 2
16 151 2
16 152 2
16 153 2
17 7 1
17 46 1
17 57 1
17 68 1
17 154 2
17 155 2
17 156 2
17 157 2
17 158 2
17 159 2
17 160 2
17 161 2
18 8 1
18 78 1
18 88 1
18 98 1
18 154 1
18 162 2
18 163 2
18 164 2
18 165 2
18 166 2
18 167 2
18 168 2
19 9 1
19 107 1
19 116 1
19 125 1
19 155 1
19 162 1
19 169 2
19 170 2
19 171 2
19 172 2
19 173 2
19 174 2
20 10 1
20 47 1
20 58 1
20 69 1
20 175 2
20 176 2
20 177 2
20 178 2
20 179 2
20 180 2
20 181 2
20 182 2
21 11 1
21 79 1
21 89 1
21 99 1
21 175 1
21 183 2
21 184 2
21 185 2
21 186 2
21 187 2
21 188 2
21 189 2
22 12 1
22 108 1
22 117 1
22 126 1
22 176 1
22 183 1
22 190 2
22 191 2
22 192 2
22 193 2
22 194 2
22 195 2
23 34 1
23 48 1
23 100 1
23 118 1
23 135 1
23 169 1
23 184 1
23 196 2
23 197 2
23 198 2
23 199 2
23 200 2
24 35 1
24 59 1
24 80 1
24 127 1
24 136 1
24 170 1
24 185 1
24 201 2
24 202 2
24 203 2
24 204 2
24 205 2
25 36 1
25 70 1
25 90 1
25 109 1
25 137 1
25 171 1
25 186 1
25 206 2
25 207 2
25 208 2
25 209 2
25 210 2
26 37 1
26 49 1
26 101 1
26 119 1
26 142 1
26 156 1
26 190 1
26 201 1
26 211 2
26 212 2
26 213 2
26 214 2
27 38 1
27 60 1
27 81 1
27 128 1
27 143 1
27 157 1
27 191 1
27 206 1
27 215 2
27 216 2
27 217 2
27 218 2
28 39 1
28 71 1
28 91 1
28 110 1
28 144 1
28 158 1
28 192 1
28 196 1
28 219 2
28 220 2
28 221 2
28 222 2
29 40 1
29 50 1
29 102 1
29 120 1
29 148 1
29 163 1
29 177 1
29 207 1
29 215 1
29 223 2
29 224 2
29 225 2
30 41 1
30 61 1
30 82 1
30 129 1
30 149 1
30 164 1
30 178 1
30 197 1
30 219 1
30 226 2
30 227 2
30 228 2
31 42 1
31 72 1
31 92 1
31 111 1
31 150 1
31 165 1
31 179 1
31 202 1
31 211 1
31 229 2
31 230 2
31 231 2
32 25 1
32 51 1
32 93 1
32 130 1
32 138 1
32 166 1
32 193 1
32 198 1
32 216 1
32 229 1
32 232 2
32 233 2
33 26 1
33 73 1
33 83 1
33 121 1
33 139 1
33 167 1
33 194 1
33 208 1
33 212 1
33 226 1
33 234 2
33 235 2
34 27 1
34 62 1
34 103 1
34 112 1
34 140 1
34 168 1
34 195 1
34 203 1
34 220 1
34 223 1
34 236 2
34 237 2
35 28 1
35 52 1
35 94 1
35 131 1
35 151 1
35 159 1
35 187 1
35 209 1
35 213 1
35 227 1
35 236 1
35 238 2
36 29 1
36 74 1
36 84 1
36 122 1
36 152 1
36 160 1
36 188 1
36 204 1
36 221 1
36 224 1
36 232 1
36 239 2
37 30 1
37 63 1
37 104 1
37 113 1
37 153 1
37 161 1
37 189 1
37 199 1
37 217 1
37 230 1
37 234 1
37 240 2
38 31 1
38 53 1
38 95 1
38 132 1
38 145 1
38 172 1
38 180 1
38 205 1
38 222 1
38 225 1
38 235 1
38 240 1
39 32 1
39 75 1
39 85 1
39 123 1
39 146 1
39 173 1
39 181 1
39 200 1
39 218 1
39 231 1
39 237 1
39 238 1
40 33 1
40 64 1
40 105 1
40 114 1
40 147 1
40 174 1
40 182 1
40 210 1
40 214 1
40 228 1
40 233 1
40 239 1
