%%MatrixMarket matrix coordinate integer general
% HZ=d2^T for W(3,3); entries are representatives in {0,1,2} of GF(3)
160 240 480
1 1 1
1 2 2
1 13 1
2 1 1
2 3 2
2 14 1
3 2 1
3 3 2
3 24 1
4 4 1
4 5 2
4 133 1
5 4 1
5 6 2
5 134 1
6 5 1
6 6 2
6 141 1
7 7 1
7 8 2
7 154 1
8 7 1
8 9 2
8 155 1
9 8 1
9 9 2
9 162 1
10 10 1
10 11 2
10 175 1
11 10 1
11 12 2
11 176 1
12 11 1
12 12 2
12 183 1
13 13 1
13 14 2
13 24 1
14 15 1
14 18 2
14 43 1
15 15 1
15 21 2
15 44 1
16 16 1
16 19 2
16 54 1
17 16 1
17 22 2
17 55 1
18 17 1
18 20 2
18 65 1
19 17 1
19 23 2
19 66 1
20 18 1
20 21 2
20 76 1
21 19 1
21 22 2
21 86 1
22 20 1
22 23 2
22 96 1
23 25 1
23 29 2
23 232 1
24 25 1
24 33 2
24 233 1
25 26 1
25 30 2
25 234 1
26 26 1
26 31 2
26 235 1
27 27 1
27 28 2
27 236 1
28 27 1
28 32 2
28 237 1
29 28 1
29 32 2
29 238 1
30 29 1
30 33 2
30 239 1
31 30 1
31 31 2
31 240 1
32 34 1
32 39 2
32 196 1
33 34 1
33 41 2
33 197 1
34 35 1
34 37 2
34 201 1
35 35 1
35 42 2
35 202 1
36 36 1
36 38 2
36 206 1
37 36 1
37 40 2
37 207 1
38 37 1
38 42 2
38 211 1
39 38 1
39 40 2
39 215 1
40 39 1
40 41 2
40 219 1
41 43 1
41 44 2
41 76 1
42 45 1
42 48 2
42 135 1
43 45 1
43 51 2
43 138 1
44 46 1
44 49 2
44 156 1
45 46 1
45 52 2
45 159 1
46 47 1
46 50 2
46 177 1
47 47 1
47 53 2
47 180 1
48 48 1
48 51 2
48 198 1
49 49 1
49 52 2
49 213 1
50 50 1
50 53 2
50 225 1
51 54 1
51 55 2
51 86 1
52 56 1
52 59 2
52 136 1
53 56 1
53 62 2
53 140 1
54 57 1
54 60 2
54 157 1
55 57 1
55 63 2
55 161 1
56 58 1
56 61 2
56 178 1
57 58 1
57 64 2
57 182 1
58 59 1
58 62 2
58 203 1
59 60 1
59 63 2
59 217 1
60 61 1
60 64 2
60 228 1
61 65 1
61 66 2
61 96 1
62 67 1
62 70 2
62 137 1
63 67 1
63 73 2
63 139 1
64 68 1
64 71 2
64 158 1
65 68 1
65 74 2
65 160 1
66 69 1
66 72 2
66 179 1
67 69 1
67 75 2
67 181 1
68 70 1
68 73 2
68 208 1
69 71 1
69 74 2
69 221 1
70 72 1
70 75 2
70 231 1
71 77 1
71 81 2
71 143 1
72 77 1
72 85 2
72 146 1
73 78 1
73 82 2
73 164 1
74 78 1
74 83 2
74 167 1
75 79 1
75 80 2
75 185 1
76 79 1
76 84 2
76 188 1
77 80 1
77 84 2
77 204 1
78 81 1
78 85 2
78 218 1
79 82 1
79 83 2
79 226 1
80 87 1
80 91 2
80 144 1
81 87 1
81 95 2
81 145 1
82 88 1
82 92 2
82 165 1
83 88 1
83 93 2
83 166 1
84 89 1
84 90 2
84 186 1
85 89 1
85 94 2
85 187 1
86 90 1
86 94 2
86 209 1
87 91 1
87 95 2
87 222 1
88 92 1
88 93 2
88 229 1
89 97 1
89 101 2
89 142 1
90 97 1
90 105 2
90 147 1
91 98 1
91 102 2
91 163 1
92 98 1
92 103 2
92 168 1
93 99 1
93 100 2
93 184 1
94 99 1
94 104 2
94 189 1
95 100 1
95 104 2
95 199 1
96 101 1
96 105 2
96 214 1
97 102 1
97 103 2
97 223 1
98 106 1
98 111 2
98 150 1
99 106 1
99 113 2
99 153 1
100 107 1
100 109 2
100 171 1
101 107 1
101 114 2
101 174 1
102 108 1
102 110 2
102 192 1
103 108 1
103 112 2
103 195 1
104 109 1
104 114 2
104 210 1
105 110 1
105 112 2
105 220 1
106 111 1
106 113 2
106 230 1
107 115 1
107 120 2
107 148 1
108 115 1
108 122 2
108 152 1
109 116 1
109 118 2
109 169 1
110 116 1
110 123 2
110 173 1
111 117 1
111 119 2
111 190 1
112 117 1
112 121 2
112 194 1
113 118 1
113 123 2
113 200 1
114 119 1
114 121 2
114 212 1
115 120 1
115 122 2
115 224 1
116 124 1
116 129 2
116 149 1
117 124 1
117 131 2
117 151 1
118 125 1
118 127 2
118 170 1
119 125 1
119 132 2
119 172 1
120 126 1
120 128 2
120 191 1
121 126 1
121 130 2
121 193 1
122 127 1
122 132 2
122 205 1
123 128 1
123 130 2
123 216 1
124 129 1
124 131 2
124 227 1
125 133 1
125 134 2
125 141 1
126 135 1
126 138 2
126 198 1
127 136 1
127 140 2
127 203 1
128 137 1
128 139 2
128 208 1
129 142 1
129 147 2
129 214 1
130 143 1
130 146 2
130 218 1
131 144 1
131 145 2
131 222 1
132 148 1
132 152 2
132 224 1
133 149 1
133 151 2
133 227 1
134 150 1
134 153 2
134 230 1
135 154 1
135 155 2
135 162 1
136 156 1
136 159 2
136 213 1
137 157 1
137 161 2
137 217 1
138 158 1
138 160 2
138 221 1
139 163 1
139 168 2
139 223 1
140 164 1
140 167 2
140 226 1
141 165 1
141 166 2
141 229 1
142 169 1
142 173 2
142 200 1
143 170 1
143 172 2
143 205 1
144 171 1
144 174 2
144 210 1
145 175 1
145 176 2
145 183 1
146 177 1
146 180 2
146 225 1
147 178 1
147 182 2
147 228 1
148 179 1
148 181 2
148 231 1
149 184 1
149 189 2
149 199 1
150 185 1
150 188 2
150 204 1
151 186 1
151 187 2
151 209 1
152 190 1
152 194 2
152 212 1
153 191 1
153 193 2
153 216 1
154 192 1
154 195 2
154 220 1
155 196 1
155 197 2
155 219 1
156 201 1
156 202 2
156 211 1
157 206 1
157 207 2
157 215 1
158 232 1
158 233 2
158 239 1
159 234 1
159 235 2
159 240 1
160 236 1
160 237 2
160 238 1
