c BT1498 full quotient WCNF scaffold for BT1373 frontier
c soft variables 1..540 encode identity-edge choices among skew residuals
c point variables 541..547, flag variables 548..568, fiber variables 569..571
c hard clauses enforce one point anchor, one Fano flag anchor, and one local fiber block
p wcnf 571 777 541
541 541 542 543 544 545 546 547 0
541 -541 -542 0
541 -541 -543 0
541 -541 -544 0
541 -541 -545 0
541 -541 -546 0
541 -541 -547 0
541 -542 -543 0
541 -542 -544 0
541 -542 -545 0
541 -542 -546 0
541 -542 -547 0
541 -543 -544 0
541 -543 -545 0
541 -543 -546 0
541 -543 -547 0
541 -544 -545 0
541 -544 -546 0
541 -544 -547 0
541 -545 -546 0
541 -545 -547 0
541 -546 -547 0
541 548 549 550 551 552 553 554 555 556 557 558 559 560 561 562 563 564 565 566 567 568 0
541 569 570 571 0
c remaining hard one-hot pair exclusions and 540 soft unit clauses are generated by tools/bt1498_full_fano_quotient_wcnf.py
