c BT1501 quotient compatibility WCNF scaffold
c soft vars 1..540 reward identity-edge choices
c point vars 541..547, flag vars 548..568, fiber vars 569..571
c hard clauses: one-hot anchors plus edge->point/flag/fiber compatibility
p wcnf 571 2397 541
541 541 542 543 544 545 546 547 0
541 548 549 550 551 552 553 554 555 556 557 558 559 560 561 562 563 564 565 566 567 568 0
541 569 570 571 0
541 -1 541 0
541 -1 548 0
541 -1 569 0
1 1 0
c remaining one-hot exclusions, compatibility clauses, and soft clauses are generated by tools/bt1501_quotient_compatibility_wcnf.py
