c BT1806 Schlaefli graph SRG(27,16,10,8)
c v 1 (0, 0, 0)
c v 2 (0, 0, 1)
c v 3 (0, 0, 2)
c v 4 (0, 1, 0)
c v 5 (0, 1, 1)
c v 6 (0, 1, 2)
c v 7 (0, 2, 0)
c v 8 (0, 2, 1)
c v 9 (0, 2, 2)
c v 10 (1, 0, 0)
c v 11 (1, 0, 1)
c v 12 (1, 0, 2)
c v 13 (1, 1, 0)
c v 14 (1, 1, 1)
c v 15 (1, 1, 2)
c v 16 (1, 2, 0)
c v 17 (1, 2, 1)
c v 18 (1, 2, 2)
c v 19 (2, 0, 0)
c v 20 (2, 0, 1)
c v 21 (2, 0, 2)
c v 22 (2, 1, 0)
c v 23 (2, 1, 1)
c v 24 (2, 1, 2)
c v 25 (2, 2, 0)
c v 26 (2, 2, 1)
c v 27 (2, 2, 2)
p edge 27 216
e 1 11
e 1 12
e 1 13
e 1 14
e 1 15
e 1 16
e 1 17
e 1 18
e 1 20
e 1 21
e 1 22
e 1 23
e 1 24
e 1 25
e 1 26
e 1 27
e 2 4
e 2 5
e 2 6
e 2 7
e 2 8
e 2 9
e 2 10
e 2 12
e 2 13
e 2 14
e 2 15
e 2 19
e 2 21
e 2 25
e 2 26
e 2 27
e 3 4
e 3 5
e 3 6
e 3 7
e 3 8
e 3 9
e 3 10
e 3 11
e 3 16
e 3 17
e 3 18
e 3 19
e 3 20
e 3 22
e 3 23
e 3 24
e 4 5
e 4 6
e 4 8
e 4 9
e 4 10
e 4 12
e 4 15
e 4 16
e 4 18
e 4 19
e 4 20
e 4 23
e 4 25
e 4 26
e 5 6
e 5 7
e 5 8
e 5 10
e 5 12
e 5 13
e 5 17
e 5 18
e 5 19
e 5 20
e 5 24
e 5 25
e 5 27
e 6 7
e 6 9
e 6 10
e 6 12
e 6 14
e 6 16
e 6 17
e 6 19
e 6 20
e 6 22
e 6 26
e 6 27
e 7 8
e 7 9
e 7 10
e 7 11
e 7 13
e 7 14
e 7 17
e 7 19
e 7 21
e 7 22
e 7 24
e 7 27
e 8 9
e 8 10
e 8 11
e 8 13
e 8 15
e 8 18
e 8 19
e 8 21
e 8 23
e 8 24
e 8 25
e 9 10
e 9 11
e 9 14
e 9 15
e 9 16
e 9 19
e 9 21
e 9 22
e 9 23
e 9 26
e 10 20
e 10 21
e 10 22
e 10 23
e 10 24
e 10 25
e 10 26
e 10 27
e 11 13
e 11 14
e 11 15
e 11 16
e 11 17
e 11 18
e 11 19
e 11 21
e 11 22
e 11 23
e 11 24
e 12 13
e 12 14
e 12 15
e 12 16
e 12 17
e 12 18
e 12 19
e 12 20
e 12 25
e 12 26
e 12 27
e 13 14
e 13 15
e 13 17
e 13 18
e 13 19
e 13 21
e 13 24
e 13 25
e 13 27
e 14 15
e 14 16
e 14 17
e 14 19
e 14 21
e 14 22
e 14 26
e 14 27
e 15 16
e 15 18
e 15 19
e 15 21
e 15 23
e 15 25
e 15 26
e 16 17
e 16 18
e 16 19
e 16 20
e 16 22
e 16 23
e 16 26
e 17 18
e 17 19
e 17 20
e 17 22
e 17 24
e 17 27
e 18 19
e 18 20
e 18 23
e 18 24
e 18 25
e 20 22
e 20 23
e 20 24
e 20 25
e 20 26
e 20 27
e 21 22
e 21 23
e 21 24
e 21 25
e 21 26
e 21 27
e 22 23
e 22 24
e 22 26
e 22 27
e 23 24
e 23 25
e 23 26
e 24 25
e 24 27
e 25 26
e 25 27
e 26 27
